c uprop, v00.0, 
c reading from data/prog657.c.cnf
c done reading: 0.002742
p cnf 185 879
-90 -111 0
-90 -107 0
90 107 111 0
-84 107 111 0
-84 -107 -111 0
84 107 -111 0
84 -107 111 0
90 -102 0
-100 -102 0
-90 100 102 0
-90 -95 100 0
90 -95 -100 0
90 95 100 0
-90 95 -100 0
-91 102 0
-88 -91 0
88 91 -102 0
-86 88 -102 0
-86 -88 102 0
86 88 102 0
86 -88 -102 0
-85 91 0
-82 -85 0
82 85 -91 0
82 -91 -109 0
-82 91 -109 0
82 91 109 0
-82 -91 109 0
85 -113 0
-104 -113 0
-85 104 113 0
-85 104 -114 0
85 -104 -114 0
85 104 114 0
-85 -104 114 0
113 -115 0
-97 -115 0
97 -113 115 0
97 -113 -116 0
-97 113 -116 0
97 113 116 0
-97 -113 116 0
115 -117 0
-93 -117 0
93 -115 117 0
93 -115 -118 0
-93 115 -118 0
93 115 118 0
-93 -115 118 0
107 -119 0
111 -119 0
-107 -111 119 0
-107 -111 -120 0
107 111 -120 0
-107 111 120 0
107 -111 120 0
-100 -107 121 0
-100 -119 121 0
-107 -119 121 0
100 107 -121 0
100 119 -121 0
107 119 -121 0
100 -121 -122 0
107 -121 -122 0
119 -121 -122 0
-100 121 122 0
-107 121 122 0
-119 121 122 0
-100 -107 -119 122 0
100 107 119 -122 0
-88 -100 123 0
-88 -121 123 0
-100 -121 123 0
88 100 -123 0
88 121 -123 0
100 121 -123 0
88 -123 -124 0
100 -123 -124 0
121 -123 -124 0
-88 123 124 0
-100 123 124 0
-121 123 124 0
-88 -100 -121 124 0
88 100 121 -124 0
-82 -88 125 0
-82 -123 125 0
-88 -123 125 0
82 88 -125 0
82 123 -125 0
88 123 -125 0
-80 82 -125 0
-80 88 -125 0
-80 123 -125 0
80 -82 125 0
80 -88 125 0
80 -123 125 0
80 -82 -88 -123 0
-80 82 88 123 0
79 -82 -104 0
79 -104 -125 0
79 -82 -125 0
-79 82 104 0
-79 104 125 0
-79 82 125 0
-78 -79 104 0
-78 -79 82 0
-78 -79 125 0
78 79 -104 0
78 79 -82 0
78 79 -125 0
78 -82 -104 -125 0
-78 82 104 125 0
77 -97 -104 0
77 -79 -97 0
77 -79 -104 0
-77 97 104 0
-77 79 97 0
-77 79 104 0
-76 -77 97 0
-76 -77 104 0
-76 -77 79 0
76 77 -97 0
76 77 -104 0
76 77 -79 0
76 -79 -97 -104 0
-76 79 97 104 0
75 -93 -97 0
75 -77 -93 0
75 -77 -97 0
-75 93 97 0
-75 77 93 0
-75 77 97 0
-75 93 -110 0
-75 97 -110 0
-75 77 -110 0
75 -93 110 0
75 -97 110 0
75 -77 110 0
-77 -93 -97 110 0
77 93 97 -110 0
93 -106 0
75 -106 0
-75 -93 106 0
-75 -93 -99 0
75 93 -99 0
75 -93 99 0
-75 93 99 0
-87 122 0
-87 111 0
87 -111 -122 0
-81 -111 -122 0
-81 111 122 0
81 111 -122 0
81 -111 122 0
103 -107 -124 0
-87 103 -124 0
-87 103 -107 0
-103 107 124 0
87 -103 124 0
87 -103 107 0
-96 -103 124 0
-96 -103 107 0
87 -96 -103 0
96 103 -124 0
96 103 -107 0
-87 96 103 0
-87 96 -107 -124 0
87 -96 107 124 0
-80 92 -100 0
-80 92 -103 0
92 -100 -103 0
80 -92 100 0
80 -92 103 0
-92 100 103 0
-74 80 -92 0
-74 -92 100 0
-74 -92 103 0
74 -80 92 0
74 92 -100 0
74 92 -103 0
74 -80 -100 -103 0
-74 80 100 103 0
73 -78 -88 0
73 -78 -92 0
73 -88 -92 0
-73 78 88 0
-73 78 92 0
-73 88 92 0
-72 -73 78 0
-72 -73 88 0
-72 -73 92 0
72 73 -78 0
72 73 -88 0
72 73 -92 0
72 -78 -88 -92 0
-72 78 88 92 0
71 -76 -82 0
71 -73 -76 0
71 -73 -82 0
-71 76 82 0
-71 73 76 0
-71 73 82 0
-70 -71 76 0
-70 -71 82 0
-70 -71 73 0
70 71 -76 0
70 71 -82 0
70 71 -73 0
70 -73 -76 -82 0
-70 73 76 82 0
69 -104 -110 0
69 -71 -110 0
69 -71 -104 0
-69 104 110 0
-69 71 110 0
-69 71 104 0
-68 -69 110 0
-68 -69 104 0
-68 -69 71 0
68 69 -110 0
68 69 -104 0
68 69 -71 0
68 -71 -104 -110 0
-68 71 104 110 0
67 -97 -99 0
67 -69 -99 0
67 -69 -97 0
-67 97 99 0
-67 69 99 0
-67 69 97 0
-66 -67 99 0
-66 -67 97 0
-66 -67 69 0
66 67 -99 0
66 67 -97 0
66 67 -69 0
66 -69 -97 -99 0
-66 69 97 99 0
65 -93 -106 0
65 -67 -106 0
65 -67 -93 0
-65 93 106 0
-65 67 106 0
-65 67 93 0
-64 -65 106 0
-64 -65 93 0
-64 -65 67 0
64 65 -106 0
64 65 -93 0
64 65 -67 0
64 -67 -93 -106 0
-64 67 93 106 0
-63 96 0
-63 111 0
63 -96 -111 0
-62 -96 -111 0
-62 96 111 0
62 -96 111 0
62 96 -111 0
61 -74 -107 0
61 -63 -74 0
61 -63 -107 0
-61 74 107 0
-61 63 74 0
-61 63 107 0
-60 -61 74 0
-60 -61 107 0
-60 -61 63 0
60 61 -74 0
60 61 -107 0
60 61 -63 0
60 -63 -74 -107 0
-60 63 74 107 0
59 -72 -100 0
59 -61 -72 0
59 -61 -100 0
-59 72 100 0
-59 61 72 0
-59 61 100 0
-59 72 -126 0
-59 100 -126 0
-59 61 -126 0
59 -72 126 0
59 -100 126 0
59 -61 126 0
-61 -72 -100 126 0
61 72 100 -126 0
-70 -88 127 0
-59 -70 127 0
-59 -88 127 0
70 88 -127 0
59 70 -127 0
59 88 -127 0
70 -127 -128 0
88 -127 -128 0
59 -127 -128 0
-70 127 128 0
-88 127 128 0
-59 127 128 0
-59 -70 -88 128 0
59 70 88 -128 0
-68 -82 129 0
-68 -127 129 0
-82 -127 129 0
68 82 -129 0
68 127 -129 0
82 127 -129 0
68 -129 -130 0
82 -129 -130 0
127 -129 -130 0
-68 129 130 0
-82 129 130 0
-127 129 130 0
-68 -82 -127 130 0
68 82 127 -130 0
-66 -104 131 0
-66 -129 131 0
-104 -129 131 0
66 104 -131 0
66 129 -131 0
104 129 -131 0
66 -131 -132 0
104 -131 -132 0
129 -131 -132 0
-66 131 132 0
-104 131 132 0
-129 131 132 0
-66 -104 -129 132 0
66 104 129 -132 0
-64 -97 133 0
-64 -131 133 0
-97 -131 133 0
64 97 -133 0
64 131 -133 0
97 131 -133 0
64 -133 -134 0
97 -133 -134 0
131 -133 -134 0
-64 133 134 0
-97 133 134 0
-131 133 134 0
-64 -97 -131 134 0
64 97 131 -134 0
-65 -93 135 0
-65 -133 135 0
-93 -133 135 0
65 93 -135 0
65 133 -135 0
93 133 -135 0
65 -135 -136 0
93 -135 -136 0
133 -135 -136 0
-65 135 136 0
-93 135 136 0
-133 135 136 0
-65 -93 -133 136 0
65 93 133 -136 0
126 -137 0
111 -137 0
-111 -126 137 0
-111 -126 -138 0
111 126 -138 0
111 -126 138 0
-111 126 138 0
-107 -128 139 0
-128 -137 139 0
-107 -137 139 0
107 128 -139 0
128 137 -139 0
107 137 -139 0
128 -139 -140 0
107 -139 -140 0
137 -139 -140 0
-128 139 140 0
-107 139 140 0
-137 139 140 0
-107 -128 -137 140 0
107 128 137 -140 0
-100 -130 141 0
-130 -139 141 0
-100 -139 141 0
100 130 -141 0
130 139 -141 0
100 139 -141 0
130 -141 -142 0
100 -141 -142 0
139 -141 -142 0
-130 141 142 0
-100 141 142 0
-139 141 142 0
-100 -130 -139 142 0
100 130 139 -142 0
-88 -132 143 0
-132 -141 143 0
-88 -141 143 0
88 132 -143 0
132 141 -143 0
88 141 -143 0
132 -143 -144 0
88 -143 -144 0
141 -143 -144 0
-132 143 144 0
-88 143 144 0
-141 143 144 0
-88 -132 -141 144 0
88 132 141 -144 0
-82 -134 145 0
-134 -143 145 0
-82 -143 145 0
82 134 -145 0
134 143 -145 0
82 143 -145 0
134 -145 -146 0
82 -145 -146 0
143 -145 -146 0
-134 145 146 0
-82 145 146 0
-143 145 146 0
-82 -134 -143 146 0
82 134 143 -146 0
-104 -136 147 0
-136 -145 147 0
-104 -145 147 0
104 136 -147 0
136 145 -147 0
104 145 -147 0
136 -147 -148 0
104 -147 -148 0
145 -147 -148 0
-136 147 148 0
-104 147 148 0
-145 147 148 0
-104 -136 -145 148 0
104 136 145 -148 0
-97 -135 149 0
-135 -147 149 0
-97 -147 149 0
97 135 -149 0
135 147 -149 0
97 147 -149 0
135 -149 -150 0
97 -149 -150 0
147 -149 -150 0
-135 149 150 0
-97 149 150 0
-147 149 150 0
-97 -135 -147 150 0
97 135 147 -150 0
93 -151 0
149 -151 0
-93 -149 151 0
-93 -149 -152 0
93 149 -152 0
-93 149 152 0
93 -149 152 0
-111 -153 0
-120 -153 0
111 120 153 0
111 120 -154 0
-111 -120 -154 0
-111 120 154 0
111 -120 154 0
153 -155 0
-81 -155 0
81 -153 155 0
81 -153 -156 0
-81 153 -156 0
81 153 156 0
-81 -153 156 0
155 -157 0
-62 -157 0
62 -155 157 0
62 -155 -158 0
-62 155 -158 0
62 155 158 0
-62 -155 158 0
157 -159 0
-60 -159 0
60 -157 159 0
60 -157 -160 0
-60 157 -160 0
60 157 160 0
-60 -157 160 0
159 -161 0
-138 -161 0
138 -159 161 0
138 -159 -162 0
-138 159 -162 0
138 159 162 0
-138 -159 162 0
161 -163 0
-140 -163 0
140 -161 163 0
140 -161 -164 0
-140 161 -164 0
140 161 164 0
-140 -161 164 0
163 -165 0
-142 -165 0
142 -163 165 0
142 -163 -166 0
-142 163 -166 0
142 163 166 0
-142 -163 166 0
165 -167 0
-144 -167 0
144 -165 167 0
144 -165 -168 0
-144 165 -168 0
144 165 168 0
-144 -165 168 0
167 -169 0
-146 -169 0
146 -167 169 0
-112 146 -167 0
-112 -146 167 0
112 146 167 0
112 -146 -167 0
-108 169 0
-108 -148 0
108 148 -169 0
-101 148 -169 0
-101 -148 169 0
101 148 169 0
101 -148 -169 0
-89 108 0
-89 -150 0
89 -108 150 0
-83 -108 150 0
-83 108 -150 0
83 108 150 0
83 -108 -150 0
89 -105 0
-105 -152 0
-89 105 152 0
-89 -98 152 0
89 -98 -152 0
89 98 152 0
-89 98 -152 0
-94 105 0
-94 -151 0
94 -105 151 0
-105 151 -170 0
105 -151 -170 0
105 151 170 0
-105 -151 170 0
-171 -172 0
-172 -173 0
171 172 173 0
171 173 -174 0
-171 -173 -174 0
-171 173 174 0
171 -173 174 0
172 -176 0
-175 -176 0
-172 175 176 0
-172 175 -178 0
172 -175 -178 0
172 175 178 0
-172 -175 178 0
176 -180 0
-177 -180 0
-176 177 180 0
-176 177 -182 0
176 -177 -182 0
176 177 182 0
-176 -177 182 0
180 -183 0
-179 -183 0
179 -180 183 0
179 -180 -184 0
-179 180 -184 0
179 180 184 0
-179 -180 184 0
183 -185 0
-181 -185 0
181 -183 185 0
-58 181 -183 0
-58 -181 183 0
58 181 183 0
58 -181 -183 0
-57 185 0
-56 -57 0
56 57 -185 0
-55 56 -185 0
-55 -56 185 0
55 56 185 0
55 -56 -185 0
-54 57 0
-53 -54 0
53 54 -57 0
-52 53 -57 0
-52 -53 57 0
52 53 57 0
52 -53 -57 0
-51 177 0
-51 171 0
51 -171 -177 0
-50 -171 -177 0
-50 171 177 0
50 171 -177 0
50 -171 177 0
49 -173 -179 0
49 -51 -179 0
49 -51 -173 0
-49 173 179 0
-49 51 179 0
-49 51 173 0
-48 -49 179 0
-48 -49 173 0
-48 -49 51 0
48 49 -179 0
48 49 -173 0
48 49 -51 0
48 -51 -173 -179 0
-48 51 173 179 0
47 -175 -181 0
47 -49 -181 0
47 -49 -175 0
-47 175 181 0
-47 49 181 0
-47 49 175 0
-46 -47 181 0
-46 -47 175 0
-46 -47 49 0
46 47 -181 0
46 47 -175 0
46 47 -49 0
46 -49 -175 -181 0
-46 49 175 181 0
45 -56 -177 0
45 -47 -56 0
45 -47 -177 0
-45 56 177 0
-45 47 56 0
-45 47 177 0
-44 -45 56 0
-44 -45 177 0
-44 -45 47 0
44 45 -56 0
44 45 -177 0
44 45 -47 0
44 -47 -56 -177 0
-44 47 56 177 0
43 -53 -179 0
43 -45 -53 0
43 -45 -179 0
-43 53 179 0
-43 45 53 0
-43 45 179 0
-42 -43 53 0
-42 -43 179 0
-42 -43 45 0
42 43 -53 0
42 43 -179 0
42 43 -45 0
42 -45 -53 -179 0
-42 45 53 179 0
-41 181 0
-41 43 0
41 -43 -181 0
-40 -43 -181 0
-40 43 181 0
40 43 -181 0
40 -43 181 0
-39 56 0
-39 41 0
39 -41 -56 0
-38 -41 -56 0
-38 41 56 0
38 41 -56 0
38 -41 56 0
-37 53 0
-37 39 0
37 -39 -53 0
-36 -39 -53 0
-36 39 53 0
36 39 -53 0
36 -39 53 0
-35 -171 0
-35 -173 0
35 171 173 0
-34 171 173 0
-34 -171 -173 0
34 -171 173 0
34 171 -173 0
-33 35 0
-33 -175 0
33 -35 175 0
-32 -35 175 0
-32 35 -175 0
32 35 175 0
32 -35 -175 0
-31 33 0
-31 -50 0
31 -33 50 0
-30 -33 50 0
-30 33 -50 0
30 33 50 0
30 -33 -50 0
-29 31 0
-29 -48 0
29 -31 48 0
-28 -31 48 0
-28 31 -48 0
28 31 48 0
28 -31 -48 0
-27 29 0
-27 -46 0
27 -29 46 0
-26 -29 46 0
-26 29 -46 0
26 29 46 0
26 -29 -46 0
-25 27 0
-25 -44 0
25 -27 44 0
-24 -27 44 0
-24 27 -44 0
24 27 44 0
24 -27 -44 0
-23 25 0
-23 -42 0
23 -25 42 0
-22 -25 42 0
-22 25 -42 0
22 25 42 0
22 -25 -42 0
-21 23 0
-21 -40 0
21 -23 40 0
-20 -23 40 0
-20 23 -40 0
20 23 40 0
20 -23 -40 0
-19 21 0
-19 -38 0
19 -21 38 0
-18 -21 38 0
-18 21 -38 0
18 21 38 0
18 -21 -38 0
-17 19 0
-17 -36 0
17 -19 36 0
-16 -19 36 0
-16 19 -36 0
16 19 36 0
16 -19 -36 0
-15 17 0
-15 -37 0
15 -17 37 0
-14 -17 37 0
-14 17 -37 0
14 17 37 0
14 -17 -37 0
-13 111 0
-13 171 0
13 -111 -171 0
-111 171 0
111 -171 0
12 -120 -173 0
12 -13 -120 0
12 -13 -173 0
-12 120 173 0
-12 13 120 0
-12 13 173 0
12 -120 0
12 -173 0
12 -13 0
-13 -120 -173 0
11 -81 -175 0
11 -12 -81 0
11 -12 -175 0
-11 81 175 0
-11 12 81 0
-11 12 175 0
11 -81 0
11 -175 0
11 -12 0
-12 -81 -175 0
10 -50 -62 0
10 -11 -62 0
10 -11 -50 0
-10 50 62 0
-10 11 62 0
-10 11 50 0
-10 62 0
-10 50 0
-10 11 0
11 50 62 0
9 -48 -60 0
9 -10 -60 0
9 -10 -48 0
-9 48 60 0
-9 10 60 0
-9 10 48 0
9 -60 0
9 -48 0
9 -10 0
-10 -48 -60 0
8 -46 -138 0
8 -9 -138 0
8 -9 -46 0
-8 46 138 0
-8 9 138 0
-8 9 46 0
8 -138 0
8 -46 0
8 -9 0
-9 -46 -138 0
7 -44 -140 0
7 -8 -140 0
7 -8 -44 0
-7 44 140 0
-7 8 140 0
-7 8 44 0
-7 140 0
-7 44 0
-7 8 0
8 44 140 0
6 -42 -142 0
6 -7 -142 0
6 -7 -42 0
-6 42 142 0
-6 7 142 0
-6 7 42 0
-6 142 0
-6 42 0
-6 7 0
7 42 142 0
5 -40 -144 0
5 -6 -144 0
5 -6 -40 0
-5 40 144 0
-5 6 144 0
-5 6 40 0
5 -144 0
5 -40 0
5 -6 0
-6 -40 -144 0
4 -38 -146 0
4 -5 -146 0
4 -5 -38 0
-4 38 146 0
-4 5 146 0
-4 5 38 0
4 -146 0
4 -38 0
4 -5 0
-5 -38 -146 0
3 -36 -148 0
3 -4 -148 0
3 -4 -36 0
-3 36 148 0
-3 4 148 0
-3 4 36 0
3 -148 0
3 -36 0
3 -4 0
-4 -36 -148 0
2 -37 -150 0
2 -3 -150 0
2 -3 -37 0
-2 37 150 0
-2 3 150 0
-2 3 37 0
2 -150 0
2 -37 0
2 -3 0
-3 -37 -150 0
-1 152 0
-1 2 0
1 -2 -152 0
2 -152 0
-2 152 0
-1 -151 0
1 -151 0
-1 151 0
